190452.0
1857
1 3 4 5 9 13 14 16 18 19 20 21 24 26 28 31 33 36 41 42 44 45 47 48 50 54 55 61 62 63 64 67 68 69 71 72 74 75 76 78 81 89 96 97 98 99 100 104 107 111 113 114 115 116 117 120 123 124 127 128 130 131 133 134 135 136 140 141 142 143 144 145 148 150 151 154 158 159 160 161 165 167 171 174 177 184 185 187 188 189 190 191 194 196 197 199 